Minimize
x0 + x1 + x2 + x3 + x8 + x9 + x10 + x11 + x20 + x21 + x22 + x23 + x28 + x29 + x30 + x31 + x36 + x37 + x38 + x39 + x44 + x45 + x46 + x47 + x52 + x53 + x54 + x55 + x60 + x61 + x62 + x63 + x68 + x69 + x70 + x71 + x76 + x77 + x78 + x79 + x84 + x85 + x86 + x87 + x92 + x93 + x94 + x95 + x100 + x101 + x102 + x103 + x108 + x109 + x110 + x111 + x116 + x117 + x118 + x119 + x124 + x125 + x126 + x127 + x132 + x133 + x134 + x135 + x140 + x141 + x142 + x143 + x148 + x149 + x150 + x151 + x156 + x157 + x158 + x159 + x164 + x165 + x166 + x167 + x172 + x173 + x174 + x175 + x180 + x181 + x182 + x183 + x188 + x189 + x190 + x191 + x196 + x197 + x198 + x199 + x204 + x205 + x206 + x207 + x212 + x213 + x214 + x215 + x220 + x221 + x222 + x223 + x228 + x229 + x230 + x231 + x236 + x237 + x238 + x239 + x244 + x245 + x246 + x247 + x252 + x253 + x254 + x255 + x260 + x261 + x262 + x263 + x268 + x269 + x270 + x271 + x276 + x277 + x278 + x279 + x284 + x285 + x286 + x287 + 
Subject To
\\Clefia S0
\\M_0
x0 + x1 + x2 + x3 + x16 + x17 + x18 + x19 - 5 d0 >= 0
d0 - x0 >= 0
d0 - x1 >= 0
d0 - x2 >= 0
d0 - x3 >= 0
d0 - x16 >= 0
d0 - x17 >= 0
d0 - x18 >= 0
d0 - x19 >= 0
\\XOR
x4 + x16 + x20 - 2 d1 >= 0
d1 - x4 >= 0
d1 - x16 >= 0
d1 - x20 >= 0
\\XOR
x5 + x17 + x21 - 2 d2 >= 0
d2 - x5 >= 0
d2 - x17 >= 0
d2 - x21 >= 0
\\XOR
x6 + x18 + x22 - 2 d3 >= 0
d3 - x6 >= 0
d3 - x18 >= 0
d3 - x22 >= 0
\\XOR
x7 + x19 + x23 - 2 d4 >= 0
d4 - x7 >= 0
d4 - x19 >= 0
d4 - x23 >= 0
\\Clefia S1
\\M_1
x8 + x9 + x10 + x11 + x24 + x25 + x26 + x27 - 5 d5 >= 0
d5 - x8 >= 0
d5 - x9 >= 0
d5 - x10 >= 0
d5 - x11 >= 0
d5 - x24 >= 0
d5 - x25 >= 0
d5 - x26 >= 0
d5 - x27 >= 0
\\XOR
x12 + x24 + x28 - 2 d6 >= 0
d6 - x12 >= 0
d6 - x24 >= 0
d6 - x28 >= 0
\\XOR
x13 + x25 + x29 - 2 d7 >= 0
d7 - x13 >= 0
d7 - x25 >= 0
d7 - x29 >= 0
\\XOR
x14 + x26 + x30 - 2 d8 >= 0
d8 - x14 >= 0
d8 - x26 >= 0
d8 - x30 >= 0
\\XOR
x15 + x27 + x31 - 2 d9 >= 0
d9 - x15 >= 0
d9 - x27 >= 0
d9 - x31 >= 0
\\Identity
\\Identity
\\Identity
\\Identity
\\Identity
\\Identity
\\Identity
\\Identity
\\Identity
\\Identity
\\Identity
\\Identity
\\Identity
\\Identity
\\Identity
\\Identity
\\Clefia S0
\\M_0
x20 + x21 + x22 + x23 + x32 + x33 + x34 + x35 - 5 d10 >= 0
d10 - x20 >= 0
d10 - x21 >= 0
d10 - x22 >= 0
d10 - x23 >= 0
d10 - x32 >= 0
d10 - x33 >= 0
d10 - x34 >= 0
d10 - x35 >= 0
\\XOR
x8 + x32 + x36 - 2 d11 >= 0
d11 - x8 >= 0
d11 - x32 >= 0
d11 - x36 >= 0
\\XOR
x9 + x33 + x37 - 2 d12 >= 0
d12 - x9 >= 0
d12 - x33 >= 0
d12 - x37 >= 0
\\XOR
x10 + x34 + x38 - 2 d13 >= 0
d13 - x10 >= 0
d13 - x34 >= 0
d13 - x38 >= 0
\\XOR
x11 + x35 + x39 - 2 d14 >= 0
d14 - x11 >= 0
d14 - x35 >= 0
d14 - x39 >= 0
\\Clefia S1
\\M_1
x28 + x29 + x30 + x31 + x40 + x41 + x42 + x43 - 5 d15 >= 0
d15 - x28 >= 0
d15 - x29 >= 0
d15 - x30 >= 0
d15 - x31 >= 0
d15 - x40 >= 0
d15 - x41 >= 0
d15 - x42 >= 0
d15 - x43 >= 0
\\XOR
x0 + x40 + x44 - 2 d16 >= 0
d16 - x0 >= 0
d16 - x40 >= 0
d16 - x44 >= 0
\\XOR
x1 + x41 + x45 - 2 d17 >= 0
d17 - x1 >= 0
d17 - x41 >= 0
d17 - x45 >= 0
\\XOR
x2 + x42 + x46 - 2 d18 >= 0
d18 - x2 >= 0
d18 - x42 >= 0
d18 - x46 >= 0
\\XOR
x3 + x43 + x47 - 2 d19 >= 0
d19 - x3 >= 0
d19 - x43 >= 0
d19 - x47 >= 0
\\Identity
\\Identity
\\Identity
\\Identity
\\Identity
\\Identity
\\Identity
\\Identity
\\Identity
\\Identity
\\Identity
\\Identity
\\Identity
\\Identity
\\Identity
\\Identity
\\Clefia S0
\\M_0
x36 + x37 + x38 + x39 + x48 + x49 + x50 + x51 - 5 d20 >= 0
d20 - x36 >= 0
d20 - x37 >= 0
d20 - x38 >= 0
d20 - x39 >= 0
d20 - x48 >= 0
d20 - x49 >= 0
d20 - x50 >= 0
d20 - x51 >= 0
\\XOR
x28 + x48 + x52 - 2 d21 >= 0
d21 - x28 >= 0
d21 - x48 >= 0
d21 - x52 >= 0
\\XOR
x29 + x49 + x53 - 2 d22 >= 0
d22 - x29 >= 0
d22 - x49 >= 0
d22 - x53 >= 0
\\XOR
x30 + x50 + x54 - 2 d23 >= 0
d23 - x30 >= 0
d23 - x50 >= 0
d23 - x54 >= 0
\\XOR
x31 + x51 + x55 - 2 d24 >= 0
d24 - x31 >= 0
d24 - x51 >= 0
d24 - x55 >= 0
\\Clefia S1
\\M_1
x44 + x45 + x46 + x47 + x56 + x57 + x58 + x59 - 5 d25 >= 0
d25 - x44 >= 0
d25 - x45 >= 0
d25 - x46 >= 0
d25 - x47 >= 0
d25 - x56 >= 0
d25 - x57 >= 0
d25 - x58 >= 0
d25 - x59 >= 0
\\XOR
x20 + x56 + x60 - 2 d26 >= 0
d26 - x20 >= 0
d26 - x56 >= 0
d26 - x60 >= 0
\\XOR
x21 + x57 + x61 - 2 d27 >= 0
d27 - x21 >= 0
d27 - x57 >= 0
d27 - x61 >= 0
\\XOR
x22 + x58 + x62 - 2 d28 >= 0
d28 - x22 >= 0
d28 - x58 >= 0
d28 - x62 >= 0
\\XOR
x23 + x59 + x63 - 2 d29 >= 0
d29 - x23 >= 0
d29 - x59 >= 0
d29 - x63 >= 0
\\Identity
\\Identity
\\Identity
\\Identity
\\Identity
\\Identity
\\Identity
\\Identity
\\Identity
\\Identity
\\Identity
\\Identity
\\Identity
\\Identity
\\Identity
\\Identity
\\Clefia S0
\\M_0
x52 + x53 + x54 + x55 + x64 + x65 + x66 + x67 - 5 d30 >= 0
d30 - x52 >= 0
d30 - x53 >= 0
d30 - x54 >= 0
d30 - x55 >= 0
d30 - x64 >= 0
d30 - x65 >= 0
d30 - x66 >= 0
d30 - x67 >= 0
\\XOR
x44 + x64 + x68 - 2 d31 >= 0
d31 - x44 >= 0
d31 - x64 >= 0
d31 - x68 >= 0
\\XOR
x45 + x65 + x69 - 2 d32 >= 0
d32 - x45 >= 0
d32 - x65 >= 0
d32 - x69 >= 0
\\XOR
x46 + x66 + x70 - 2 d33 >= 0
d33 - x46 >= 0
d33 - x66 >= 0
d33 - x70 >= 0
\\XOR
x47 + x67 + x71 - 2 d34 >= 0
d34 - x47 >= 0
d34 - x67 >= 0
d34 - x71 >= 0
\\Clefia S1
\\M_1
x60 + x61 + x62 + x63 + x72 + x73 + x74 + x75 - 5 d35 >= 0
d35 - x60 >= 0
d35 - x61 >= 0
d35 - x62 >= 0
d35 - x63 >= 0
d35 - x72 >= 0
d35 - x73 >= 0
d35 - x74 >= 0
d35 - x75 >= 0
\\XOR
x36 + x72 + x76 - 2 d36 >= 0
d36 - x36 >= 0
d36 - x72 >= 0
d36 - x76 >= 0
\\XOR
x37 + x73 + x77 - 2 d37 >= 0
d37 - x37 >= 0
d37 - x73 >= 0
d37 - x77 >= 0
\\XOR
x38 + x74 + x78 - 2 d38 >= 0
d38 - x38 >= 0
d38 - x74 >= 0
d38 - x78 >= 0
\\XOR
x39 + x75 + x79 - 2 d39 >= 0
d39 - x39 >= 0
d39 - x75 >= 0
d39 - x79 >= 0
\\Identity
\\Identity
\\Identity
\\Identity
\\Identity
\\Identity
\\Identity
\\Identity
\\Identity
\\Identity
\\Identity
\\Identity
\\Identity
\\Identity
\\Identity
\\Identity
\\Clefia S0
\\M_0
x68 + x69 + x70 + x71 + x80 + x81 + x82 + x83 - 5 d40 >= 0
d40 - x68 >= 0
d40 - x69 >= 0
d40 - x70 >= 0
d40 - x71 >= 0
d40 - x80 >= 0
d40 - x81 >= 0
d40 - x82 >= 0
d40 - x83 >= 0
\\XOR
x60 + x80 + x84 - 2 d41 >= 0
d41 - x60 >= 0
d41 - x80 >= 0
d41 - x84 >= 0
\\XOR
x61 + x81 + x85 - 2 d42 >= 0
d42 - x61 >= 0
d42 - x81 >= 0
d42 - x85 >= 0
\\XOR
x62 + x82 + x86 - 2 d43 >= 0
d43 - x62 >= 0
d43 - x82 >= 0
d43 - x86 >= 0
\\XOR
x63 + x83 + x87 - 2 d44 >= 0
d44 - x63 >= 0
d44 - x83 >= 0
d44 - x87 >= 0
\\Clefia S1
\\M_1
x76 + x77 + x78 + x79 + x88 + x89 + x90 + x91 - 5 d45 >= 0
d45 - x76 >= 0
d45 - x77 >= 0
d45 - x78 >= 0
d45 - x79 >= 0
d45 - x88 >= 0
d45 - x89 >= 0
d45 - x90 >= 0
d45 - x91 >= 0
\\XOR
x52 + x88 + x92 - 2 d46 >= 0
d46 - x52 >= 0
d46 - x88 >= 0
d46 - x92 >= 0
\\XOR
x53 + x89 + x93 - 2 d47 >= 0
d47 - x53 >= 0
d47 - x89 >= 0
d47 - x93 >= 0
\\XOR
x54 + x90 + x94 - 2 d48 >= 0
d48 - x54 >= 0
d48 - x90 >= 0
d48 - x94 >= 0
\\XOR
x55 + x91 + x95 - 2 d49 >= 0
d49 - x55 >= 0
d49 - x91 >= 0
d49 - x95 >= 0
\\Identity
\\Identity
\\Identity
\\Identity
\\Identity
\\Identity
\\Identity
\\Identity
\\Identity
\\Identity
\\Identity
\\Identity
\\Identity
\\Identity
\\Identity
\\Identity
\\Clefia S0
\\M_0
x84 + x85 + x86 + x87 + x96 + x97 + x98 + x99 - 5 d50 >= 0
d50 - x84 >= 0
d50 - x85 >= 0
d50 - x86 >= 0
d50 - x87 >= 0
d50 - x96 >= 0
d50 - x97 >= 0
d50 - x98 >= 0
d50 - x99 >= 0
\\XOR
x76 + x96 + x100 - 2 d51 >= 0
d51 - x76 >= 0
d51 - x96 >= 0
d51 - x100 >= 0
\\XOR
x77 + x97 + x101 - 2 d52 >= 0
d52 - x77 >= 0
d52 - x97 >= 0
d52 - x101 >= 0
\\XOR
x78 + x98 + x102 - 2 d53 >= 0
d53 - x78 >= 0
d53 - x98 >= 0
d53 - x102 >= 0
\\XOR
x79 + x99 + x103 - 2 d54 >= 0
d54 - x79 >= 0
d54 - x99 >= 0
d54 - x103 >= 0
\\Clefia S1
\\M_1
x92 + x93 + x94 + x95 + x104 + x105 + x106 + x107 - 5 d55 >= 0
d55 - x92 >= 0
d55 - x93 >= 0
d55 - x94 >= 0
d55 - x95 >= 0
d55 - x104 >= 0
d55 - x105 >= 0
d55 - x106 >= 0
d55 - x107 >= 0
\\XOR
x68 + x104 + x108 - 2 d56 >= 0
d56 - x68 >= 0
d56 - x104 >= 0
d56 - x108 >= 0
\\XOR
x69 + x105 + x109 - 2 d57 >= 0
d57 - x69 >= 0
d57 - x105 >= 0
d57 - x109 >= 0
\\XOR
x70 + x106 + x110 - 2 d58 >= 0
d58 - x70 >= 0
d58 - x106 >= 0
d58 - x110 >= 0
\\XOR
x71 + x107 + x111 - 2 d59 >= 0
d59 - x71 >= 0
d59 - x107 >= 0
d59 - x111 >= 0
\\Identity
\\Identity
\\Identity
\\Identity
\\Identity
\\Identity
\\Identity
\\Identity
\\Identity
\\Identity
\\Identity
\\Identity
\\Identity
\\Identity
\\Identity
\\Identity
\\Clefia S0
\\M_0
x100 + x101 + x102 + x103 + x112 + x113 + x114 + x115 - 5 d60 >= 0
d60 - x100 >= 0
d60 - x101 >= 0
d60 - x102 >= 0
d60 - x103 >= 0
d60 - x112 >= 0
d60 - x113 >= 0
d60 - x114 >= 0
d60 - x115 >= 0
\\XOR
x92 + x112 + x116 - 2 d61 >= 0
d61 - x92 >= 0
d61 - x112 >= 0
d61 - x116 >= 0
\\XOR
x93 + x113 + x117 - 2 d62 >= 0
d62 - x93 >= 0
d62 - x113 >= 0
d62 - x117 >= 0
\\XOR
x94 + x114 + x118 - 2 d63 >= 0
d63 - x94 >= 0
d63 - x114 >= 0
d63 - x118 >= 0
\\XOR
x95 + x115 + x119 - 2 d64 >= 0
d64 - x95 >= 0
d64 - x115 >= 0
d64 - x119 >= 0
\\Clefia S1
\\M_1
x108 + x109 + x110 + x111 + x120 + x121 + x122 + x123 - 5 d65 >= 0
d65 - x108 >= 0
d65 - x109 >= 0
d65 - x110 >= 0
d65 - x111 >= 0
d65 - x120 >= 0
d65 - x121 >= 0
d65 - x122 >= 0
d65 - x123 >= 0
\\XOR
x84 + x120 + x124 - 2 d66 >= 0
d66 - x84 >= 0
d66 - x120 >= 0
d66 - x124 >= 0
\\XOR
x85 + x121 + x125 - 2 d67 >= 0
d67 - x85 >= 0
d67 - x121 >= 0
d67 - x125 >= 0
\\XOR
x86 + x122 + x126 - 2 d68 >= 0
d68 - x86 >= 0
d68 - x122 >= 0
d68 - x126 >= 0
\\XOR
x87 + x123 + x127 - 2 d69 >= 0
d69 - x87 >= 0
d69 - x123 >= 0
d69 - x127 >= 0
\\Identity
\\Identity
\\Identity
\\Identity
\\Identity
\\Identity
\\Identity
\\Identity
\\Identity
\\Identity
\\Identity
\\Identity
\\Identity
\\Identity
\\Identity
\\Identity
\\Clefia S0
\\M_0
x116 + x117 + x118 + x119 + x128 + x129 + x130 + x131 - 5 d70 >= 0
d70 - x116 >= 0
d70 - x117 >= 0
d70 - x118 >= 0
d70 - x119 >= 0
d70 - x128 >= 0
d70 - x129 >= 0
d70 - x130 >= 0
d70 - x131 >= 0
\\XOR
x108 + x128 + x132 - 2 d71 >= 0
d71 - x108 >= 0
d71 - x128 >= 0
d71 - x132 >= 0
\\XOR
x109 + x129 + x133 - 2 d72 >= 0
d72 - x109 >= 0
d72 - x129 >= 0
d72 - x133 >= 0
\\XOR
x110 + x130 + x134 - 2 d73 >= 0
d73 - x110 >= 0
d73 - x130 >= 0
d73 - x134 >= 0
\\XOR
x111 + x131 + x135 - 2 d74 >= 0
d74 - x111 >= 0
d74 - x131 >= 0
d74 - x135 >= 0
\\Clefia S1
\\M_1
x124 + x125 + x126 + x127 + x136 + x137 + x138 + x139 - 5 d75 >= 0
d75 - x124 >= 0
d75 - x125 >= 0
d75 - x126 >= 0
d75 - x127 >= 0
d75 - x136 >= 0
d75 - x137 >= 0
d75 - x138 >= 0
d75 - x139 >= 0
\\XOR
x100 + x136 + x140 - 2 d76 >= 0
d76 - x100 >= 0
d76 - x136 >= 0
d76 - x140 >= 0
\\XOR
x101 + x137 + x141 - 2 d77 >= 0
d77 - x101 >= 0
d77 - x137 >= 0
d77 - x141 >= 0
\\XOR
x102 + x138 + x142 - 2 d78 >= 0
d78 - x102 >= 0
d78 - x138 >= 0
d78 - x142 >= 0
\\XOR
x103 + x139 + x143 - 2 d79 >= 0
d79 - x103 >= 0
d79 - x139 >= 0
d79 - x143 >= 0
\\Identity
\\Identity
\\Identity
\\Identity
\\Identity
\\Identity
\\Identity
\\Identity
\\Identity
\\Identity
\\Identity
\\Identity
\\Identity
\\Identity
\\Identity
\\Identity
\\Clefia S0
\\M_0
x132 + x133 + x134 + x135 + x144 + x145 + x146 + x147 - 5 d80 >= 0
d80 - x132 >= 0
d80 - x133 >= 0
d80 - x134 >= 0
d80 - x135 >= 0
d80 - x144 >= 0
d80 - x145 >= 0
d80 - x146 >= 0
d80 - x147 >= 0
\\XOR
x124 + x144 + x148 - 2 d81 >= 0
d81 - x124 >= 0
d81 - x144 >= 0
d81 - x148 >= 0
\\XOR
x125 + x145 + x149 - 2 d82 >= 0
d82 - x125 >= 0
d82 - x145 >= 0
d82 - x149 >= 0
\\XOR
x126 + x146 + x150 - 2 d83 >= 0
d83 - x126 >= 0
d83 - x146 >= 0
d83 - x150 >= 0
\\XOR
x127 + x147 + x151 - 2 d84 >= 0
d84 - x127 >= 0
d84 - x147 >= 0
d84 - x151 >= 0
\\Clefia S1
\\M_1
x140 + x141 + x142 + x143 + x152 + x153 + x154 + x155 - 5 d85 >= 0
d85 - x140 >= 0
d85 - x141 >= 0
d85 - x142 >= 0
d85 - x143 >= 0
d85 - x152 >= 0
d85 - x153 >= 0
d85 - x154 >= 0
d85 - x155 >= 0
\\XOR
x116 + x152 + x156 - 2 d86 >= 0
d86 - x116 >= 0
d86 - x152 >= 0
d86 - x156 >= 0
\\XOR
x117 + x153 + x157 - 2 d87 >= 0
d87 - x117 >= 0
d87 - x153 >= 0
d87 - x157 >= 0
\\XOR
x118 + x154 + x158 - 2 d88 >= 0
d88 - x118 >= 0
d88 - x154 >= 0
d88 - x158 >= 0
\\XOR
x119 + x155 + x159 - 2 d89 >= 0
d89 - x119 >= 0
d89 - x155 >= 0
d89 - x159 >= 0
\\Identity
\\Identity
\\Identity
\\Identity
\\Identity
\\Identity
\\Identity
\\Identity
\\Identity
\\Identity
\\Identity
\\Identity
\\Identity
\\Identity
\\Identity
\\Identity
\\Clefia S0
\\M_0
x148 + x149 + x150 + x151 + x160 + x161 + x162 + x163 - 5 d90 >= 0
d90 - x148 >= 0
d90 - x149 >= 0
d90 - x150 >= 0
d90 - x151 >= 0
d90 - x160 >= 0
d90 - x161 >= 0
d90 - x162 >= 0
d90 - x163 >= 0
\\XOR
x140 + x160 + x164 - 2 d91 >= 0
d91 - x140 >= 0
d91 - x160 >= 0
d91 - x164 >= 0
\\XOR
x141 + x161 + x165 - 2 d92 >= 0
d92 - x141 >= 0
d92 - x161 >= 0
d92 - x165 >= 0
\\XOR
x142 + x162 + x166 - 2 d93 >= 0
d93 - x142 >= 0
d93 - x162 >= 0
d93 - x166 >= 0
\\XOR
x143 + x163 + x167 - 2 d94 >= 0
d94 - x143 >= 0
d94 - x163 >= 0
d94 - x167 >= 0
\\Clefia S1
\\M_1
x156 + x157 + x158 + x159 + x168 + x169 + x170 + x171 - 5 d95 >= 0
d95 - x156 >= 0
d95 - x157 >= 0
d95 - x158 >= 0
d95 - x159 >= 0
d95 - x168 >= 0
d95 - x169 >= 0
d95 - x170 >= 0
d95 - x171 >= 0
\\XOR
x132 + x168 + x172 - 2 d96 >= 0
d96 - x132 >= 0
d96 - x168 >= 0
d96 - x172 >= 0
\\XOR
x133 + x169 + x173 - 2 d97 >= 0
d97 - x133 >= 0
d97 - x169 >= 0
d97 - x173 >= 0
\\XOR
x134 + x170 + x174 - 2 d98 >= 0
d98 - x134 >= 0
d98 - x170 >= 0
d98 - x174 >= 0
\\XOR
x135 + x171 + x175 - 2 d99 >= 0
d99 - x135 >= 0
d99 - x171 >= 0
d99 - x175 >= 0
\\Identity
\\Identity
\\Identity
\\Identity
\\Identity
\\Identity
\\Identity
\\Identity
\\Identity
\\Identity
\\Identity
\\Identity
\\Identity
\\Identity
\\Identity
\\Identity
\\Clefia S0
\\M_0
x164 + x165 + x166 + x167 + x176 + x177 + x178 + x179 - 5 d100 >= 0
d100 - x164 >= 0
d100 - x165 >= 0
d100 - x166 >= 0
d100 - x167 >= 0
d100 - x176 >= 0
d100 - x177 >= 0
d100 - x178 >= 0
d100 - x179 >= 0
\\XOR
x156 + x176 + x180 - 2 d101 >= 0
d101 - x156 >= 0
d101 - x176 >= 0
d101 - x180 >= 0
\\XOR
x157 + x177 + x181 - 2 d102 >= 0
d102 - x157 >= 0
d102 - x177 >= 0
d102 - x181 >= 0
\\XOR
x158 + x178 + x182 - 2 d103 >= 0
d103 - x158 >= 0
d103 - x178 >= 0
d103 - x182 >= 0
\\XOR
x159 + x179 + x183 - 2 d104 >= 0
d104 - x159 >= 0
d104 - x179 >= 0
d104 - x183 >= 0
\\Clefia S1
\\M_1
x172 + x173 + x174 + x175 + x184 + x185 + x186 + x187 - 5 d105 >= 0
d105 - x172 >= 0
d105 - x173 >= 0
d105 - x174 >= 0
d105 - x175 >= 0
d105 - x184 >= 0
d105 - x185 >= 0
d105 - x186 >= 0
d105 - x187 >= 0
\\XOR
x148 + x184 + x188 - 2 d106 >= 0
d106 - x148 >= 0
d106 - x184 >= 0
d106 - x188 >= 0
\\XOR
x149 + x185 + x189 - 2 d107 >= 0
d107 - x149 >= 0
d107 - x185 >= 0
d107 - x189 >= 0
\\XOR
x150 + x186 + x190 - 2 d108 >= 0
d108 - x150 >= 0
d108 - x186 >= 0
d108 - x190 >= 0
\\XOR
x151 + x187 + x191 - 2 d109 >= 0
d109 - x151 >= 0
d109 - x187 >= 0
d109 - x191 >= 0
\\Identity
\\Identity
\\Identity
\\Identity
\\Identity
\\Identity
\\Identity
\\Identity
\\Identity
\\Identity
\\Identity
\\Identity
\\Identity
\\Identity
\\Identity
\\Identity
\\Clefia S0
\\M_0
x180 + x181 + x182 + x183 + x192 + x193 + x194 + x195 - 5 d110 >= 0
d110 - x180 >= 0
d110 - x181 >= 0
d110 - x182 >= 0
d110 - x183 >= 0
d110 - x192 >= 0
d110 - x193 >= 0
d110 - x194 >= 0
d110 - x195 >= 0
\\XOR
x172 + x192 + x196 - 2 d111 >= 0
d111 - x172 >= 0
d111 - x192 >= 0
d111 - x196 >= 0
\\XOR
x173 + x193 + x197 - 2 d112 >= 0
d112 - x173 >= 0
d112 - x193 >= 0
d112 - x197 >= 0
\\XOR
x174 + x194 + x198 - 2 d113 >= 0
d113 - x174 >= 0
d113 - x194 >= 0
d113 - x198 >= 0
\\XOR
x175 + x195 + x199 - 2 d114 >= 0
d114 - x175 >= 0
d114 - x195 >= 0
d114 - x199 >= 0
\\Clefia S1
\\M_1
x188 + x189 + x190 + x191 + x200 + x201 + x202 + x203 - 5 d115 >= 0
d115 - x188 >= 0
d115 - x189 >= 0
d115 - x190 >= 0
d115 - x191 >= 0
d115 - x200 >= 0
d115 - x201 >= 0
d115 - x202 >= 0
d115 - x203 >= 0
\\XOR
x164 + x200 + x204 - 2 d116 >= 0
d116 - x164 >= 0
d116 - x200 >= 0
d116 - x204 >= 0
\\XOR
x165 + x201 + x205 - 2 d117 >= 0
d117 - x165 >= 0
d117 - x201 >= 0
d117 - x205 >= 0
\\XOR
x166 + x202 + x206 - 2 d118 >= 0
d118 - x166 >= 0
d118 - x202 >= 0
d118 - x206 >= 0
\\XOR
x167 + x203 + x207 - 2 d119 >= 0
d119 - x167 >= 0
d119 - x203 >= 0
d119 - x207 >= 0
\\Identity
\\Identity
\\Identity
\\Identity
\\Identity
\\Identity
\\Identity
\\Identity
\\Identity
\\Identity
\\Identity
\\Identity
\\Identity
\\Identity
\\Identity
\\Identity
\\Clefia S0
\\M_0
x196 + x197 + x198 + x199 + x208 + x209 + x210 + x211 - 5 d120 >= 0
d120 - x196 >= 0
d120 - x197 >= 0
d120 - x198 >= 0
d120 - x199 >= 0
d120 - x208 >= 0
d120 - x209 >= 0
d120 - x210 >= 0
d120 - x211 >= 0
\\XOR
x188 + x208 + x212 - 2 d121 >= 0
d121 - x188 >= 0
d121 - x208 >= 0
d121 - x212 >= 0
\\XOR
x189 + x209 + x213 - 2 d122 >= 0
d122 - x189 >= 0
d122 - x209 >= 0
d122 - x213 >= 0
\\XOR
x190 + x210 + x214 - 2 d123 >= 0
d123 - x190 >= 0
d123 - x210 >= 0
d123 - x214 >= 0
\\XOR
x191 + x211 + x215 - 2 d124 >= 0
d124 - x191 >= 0
d124 - x211 >= 0
d124 - x215 >= 0
\\Clefia S1
\\M_1
x204 + x205 + x206 + x207 + x216 + x217 + x218 + x219 - 5 d125 >= 0
d125 - x204 >= 0
d125 - x205 >= 0
d125 - x206 >= 0
d125 - x207 >= 0
d125 - x216 >= 0
d125 - x217 >= 0
d125 - x218 >= 0
d125 - x219 >= 0
\\XOR
x180 + x216 + x220 - 2 d126 >= 0
d126 - x180 >= 0
d126 - x216 >= 0
d126 - x220 >= 0
\\XOR
x181 + x217 + x221 - 2 d127 >= 0
d127 - x181 >= 0
d127 - x217 >= 0
d127 - x221 >= 0
\\XOR
x182 + x218 + x222 - 2 d128 >= 0
d128 - x182 >= 0
d128 - x218 >= 0
d128 - x222 >= 0
\\XOR
x183 + x219 + x223 - 2 d129 >= 0
d129 - x183 >= 0
d129 - x219 >= 0
d129 - x223 >= 0
\\Identity
\\Identity
\\Identity
\\Identity
\\Identity
\\Identity
\\Identity
\\Identity
\\Identity
\\Identity
\\Identity
\\Identity
\\Identity
\\Identity
\\Identity
\\Identity
\\Clefia S0
\\M_0
x212 + x213 + x214 + x215 + x224 + x225 + x226 + x227 - 5 d130 >= 0
d130 - x212 >= 0
d130 - x213 >= 0
d130 - x214 >= 0
d130 - x215 >= 0
d130 - x224 >= 0
d130 - x225 >= 0
d130 - x226 >= 0
d130 - x227 >= 0
\\XOR
x204 + x224 + x228 - 2 d131 >= 0
d131 - x204 >= 0
d131 - x224 >= 0
d131 - x228 >= 0
\\XOR
x205 + x225 + x229 - 2 d132 >= 0
d132 - x205 >= 0
d132 - x225 >= 0
d132 - x229 >= 0
\\XOR
x206 + x226 + x230 - 2 d133 >= 0
d133 - x206 >= 0
d133 - x226 >= 0
d133 - x230 >= 0
\\XOR
x207 + x227 + x231 - 2 d134 >= 0
d134 - x207 >= 0
d134 - x227 >= 0
d134 - x231 >= 0
\\Clefia S1
\\M_1
x220 + x221 + x222 + x223 + x232 + x233 + x234 + x235 - 5 d135 >= 0
d135 - x220 >= 0
d135 - x221 >= 0
d135 - x222 >= 0
d135 - x223 >= 0
d135 - x232 >= 0
d135 - x233 >= 0
d135 - x234 >= 0
d135 - x235 >= 0
\\XOR
x196 + x232 + x236 - 2 d136 >= 0
d136 - x196 >= 0
d136 - x232 >= 0
d136 - x236 >= 0
\\XOR
x197 + x233 + x237 - 2 d137 >= 0
d137 - x197 >= 0
d137 - x233 >= 0
d137 - x237 >= 0
\\XOR
x198 + x234 + x238 - 2 d138 >= 0
d138 - x198 >= 0
d138 - x234 >= 0
d138 - x238 >= 0
\\XOR
x199 + x235 + x239 - 2 d139 >= 0
d139 - x199 >= 0
d139 - x235 >= 0
d139 - x239 >= 0
\\Identity
\\Identity
\\Identity
\\Identity
\\Identity
\\Identity
\\Identity
\\Identity
\\Identity
\\Identity
\\Identity
\\Identity
\\Identity
\\Identity
\\Identity
\\Identity
\\Clefia S0
\\M_0
x228 + x229 + x230 + x231 + x240 + x241 + x242 + x243 - 5 d140 >= 0
d140 - x228 >= 0
d140 - x229 >= 0
d140 - x230 >= 0
d140 - x231 >= 0
d140 - x240 >= 0
d140 - x241 >= 0
d140 - x242 >= 0
d140 - x243 >= 0
\\XOR
x220 + x240 + x244 - 2 d141 >= 0
d141 - x220 >= 0
d141 - x240 >= 0
d141 - x244 >= 0
\\XOR
x221 + x241 + x245 - 2 d142 >= 0
d142 - x221 >= 0
d142 - x241 >= 0
d142 - x245 >= 0
\\XOR
x222 + x242 + x246 - 2 d143 >= 0
d143 - x222 >= 0
d143 - x242 >= 0
d143 - x246 >= 0
\\XOR
x223 + x243 + x247 - 2 d144 >= 0
d144 - x223 >= 0
d144 - x243 >= 0
d144 - x247 >= 0
\\Clefia S1
\\M_1
x236 + x237 + x238 + x239 + x248 + x249 + x250 + x251 - 5 d145 >= 0
d145 - x236 >= 0
d145 - x237 >= 0
d145 - x238 >= 0
d145 - x239 >= 0
d145 - x248 >= 0
d145 - x249 >= 0
d145 - x250 >= 0
d145 - x251 >= 0
\\XOR
x212 + x248 + x252 - 2 d146 >= 0
d146 - x212 >= 0
d146 - x248 >= 0
d146 - x252 >= 0
\\XOR
x213 + x249 + x253 - 2 d147 >= 0
d147 - x213 >= 0
d147 - x249 >= 0
d147 - x253 >= 0
\\XOR
x214 + x250 + x254 - 2 d148 >= 0
d148 - x214 >= 0
d148 - x250 >= 0
d148 - x254 >= 0
\\XOR
x215 + x251 + x255 - 2 d149 >= 0
d149 - x215 >= 0
d149 - x251 >= 0
d149 - x255 >= 0
\\Identity
\\Identity
\\Identity
\\Identity
\\Identity
\\Identity
\\Identity
\\Identity
\\Identity
\\Identity
\\Identity
\\Identity
\\Identity
\\Identity
\\Identity
\\Identity
\\Clefia S0
\\M_0
x244 + x245 + x246 + x247 + x256 + x257 + x258 + x259 - 5 d150 >= 0
d150 - x244 >= 0
d150 - x245 >= 0
d150 - x246 >= 0
d150 - x247 >= 0
d150 - x256 >= 0
d150 - x257 >= 0
d150 - x258 >= 0
d150 - x259 >= 0
\\XOR
x236 + x256 + x260 - 2 d151 >= 0
d151 - x236 >= 0
d151 - x256 >= 0
d151 - x260 >= 0
\\XOR
x237 + x257 + x261 - 2 d152 >= 0
d152 - x237 >= 0
d152 - x257 >= 0
d152 - x261 >= 0
\\XOR
x238 + x258 + x262 - 2 d153 >= 0
d153 - x238 >= 0
d153 - x258 >= 0
d153 - x262 >= 0
\\XOR
x239 + x259 + x263 - 2 d154 >= 0
d154 - x239 >= 0
d154 - x259 >= 0
d154 - x263 >= 0
\\Clefia S1
\\M_1
x252 + x253 + x254 + x255 + x264 + x265 + x266 + x267 - 5 d155 >= 0
d155 - x252 >= 0
d155 - x253 >= 0
d155 - x254 >= 0
d155 - x255 >= 0
d155 - x264 >= 0
d155 - x265 >= 0
d155 - x266 >= 0
d155 - x267 >= 0
\\XOR
x228 + x264 + x268 - 2 d156 >= 0
d156 - x228 >= 0
d156 - x264 >= 0
d156 - x268 >= 0
\\XOR
x229 + x265 + x269 - 2 d157 >= 0
d157 - x229 >= 0
d157 - x265 >= 0
d157 - x269 >= 0
\\XOR
x230 + x266 + x270 - 2 d158 >= 0
d158 - x230 >= 0
d158 - x266 >= 0
d158 - x270 >= 0
\\XOR
x231 + x267 + x271 - 2 d159 >= 0
d159 - x231 >= 0
d159 - x267 >= 0
d159 - x271 >= 0
\\Identity
\\Identity
\\Identity
\\Identity
\\Identity
\\Identity
\\Identity
\\Identity
\\Identity
\\Identity
\\Identity
\\Identity
\\Identity
\\Identity
\\Identity
\\Identity
\\Clefia S0
\\M_0
x260 + x261 + x262 + x263 + x272 + x273 + x274 + x275 - 5 d160 >= 0
d160 - x260 >= 0
d160 - x261 >= 0
d160 - x262 >= 0
d160 - x263 >= 0
d160 - x272 >= 0
d160 - x273 >= 0
d160 - x274 >= 0
d160 - x275 >= 0
\\XOR
x252 + x272 + x276 - 2 d161 >= 0
d161 - x252 >= 0
d161 - x272 >= 0
d161 - x276 >= 0
\\XOR
x253 + x273 + x277 - 2 d162 >= 0
d162 - x253 >= 0
d162 - x273 >= 0
d162 - x277 >= 0
\\XOR
x254 + x274 + x278 - 2 d163 >= 0
d163 - x254 >= 0
d163 - x274 >= 0
d163 - x278 >= 0
\\XOR
x255 + x275 + x279 - 2 d164 >= 0
d164 - x255 >= 0
d164 - x275 >= 0
d164 - x279 >= 0
\\Clefia S1
\\M_1
x268 + x269 + x270 + x271 + x280 + x281 + x282 + x283 - 5 d165 >= 0
d165 - x268 >= 0
d165 - x269 >= 0
d165 - x270 >= 0
d165 - x271 >= 0
d165 - x280 >= 0
d165 - x281 >= 0
d165 - x282 >= 0
d165 - x283 >= 0
\\XOR
x244 + x280 + x284 - 2 d166 >= 0
d166 - x244 >= 0
d166 - x280 >= 0
d166 - x284 >= 0
\\XOR
x245 + x281 + x285 - 2 d167 >= 0
d167 - x245 >= 0
d167 - x281 >= 0
d167 - x285 >= 0
\\XOR
x246 + x282 + x286 - 2 d168 >= 0
d168 - x246 >= 0
d168 - x282 >= 0
d168 - x286 >= 0
\\XOR
x247 + x283 + x287 - 2 d169 >= 0
d169 - x247 >= 0
d169 - x283 >= 0
d169 - x287 >= 0
\\Identity
\\Identity
\\Identity
\\Identity
\\Identity
\\Identity
\\Identity
\\Identity
\\Identity
\\Identity
\\Identity
\\Identity
\\Identity
\\Identity
\\Identity
\\Identity
\\Clefia S0
\\M_0
x276 + x277 + x278 + x279 + x288 + x289 + x290 + x291 - 5 d170 >= 0
d170 - x276 >= 0
d170 - x277 >= 0
d170 - x278 >= 0
d170 - x279 >= 0
d170 - x288 >= 0
d170 - x289 >= 0
d170 - x290 >= 0
d170 - x291 >= 0
\\XOR
x268 + x288 + x292 - 2 d171 >= 0
d171 - x268 >= 0
d171 - x288 >= 0
d171 - x292 >= 0
\\XOR
x269 + x289 + x293 - 2 d172 >= 0
d172 - x269 >= 0
d172 - x289 >= 0
d172 - x293 >= 0
\\XOR
x270 + x290 + x294 - 2 d173 >= 0
d173 - x270 >= 0
d173 - x290 >= 0
d173 - x294 >= 0
\\XOR
x271 + x291 + x295 - 2 d174 >= 0
d174 - x271 >= 0
d174 - x291 >= 0
d174 - x295 >= 0
\\Clefia S1
\\M_1
x284 + x285 + x286 + x287 + x296 + x297 + x298 + x299 - 5 d175 >= 0
d175 - x284 >= 0
d175 - x285 >= 0
d175 - x286 >= 0
d175 - x287 >= 0
d175 - x296 >= 0
d175 - x297 >= 0
d175 - x298 >= 0
d175 - x299 >= 0
\\XOR
x260 + x296 + x300 - 2 d176 >= 0
d176 - x260 >= 0
d176 - x296 >= 0
d176 - x300 >= 0
\\XOR
x261 + x297 + x301 - 2 d177 >= 0
d177 - x261 >= 0
d177 - x297 >= 0
d177 - x301 >= 0
\\XOR
x262 + x298 + x302 - 2 d178 >= 0
d178 - x262 >= 0
d178 - x298 >= 0
d178 - x302 >= 0
\\XOR
x263 + x299 + x303 - 2 d179 >= 0
d179 - x263 >= 0
d179 - x299 >= 0
d179 - x303 >= 0
\\Identity
\\Identity
\\Identity
\\Identity
\\Identity
\\Identity
\\Identity
\\Identity
\\Identity
\\Identity
\\Identity
\\Identity
\\Identity
\\Identity
\\Identity
\\Identity
\\Identity
\\Identity
\\Identity
\\Identity
\\Identity
\\Identity
\\Identity
\\Identity
\\Identity
\\Identity
\\Identity
\\Identity
\\Identity
\\Identity
\\Identity
\\Identity
x0 + x1 + x2 + x3 + x4 + x5 + x6 + x7 + x8 + x9 + x10 + x11 + x12 + x13 + x14 + x15 >= 1

Binary
d0
d1
d2
d3
d4
d5
d6
d7
d8
d9
d10
d11
d12
d13
d14
d15
d16
d17
d18
d19
d20
d21
d22
d23
d24
d25
d26
d27
d28
d29
d30
d31
d32
d33
d34
d35
d36
d37
d38
d39
d40
d41
d42
d43
d44
d45
d46
d47
d48
d49
d50
d51
d52
d53
d54
d55
d56
d57
d58
d59
d60
d61
d62
d63
d64
d65
d66
d67
d68
d69
d70
d71
d72
d73
d74
d75
d76
d77
d78
d79
d80
d81
d82
d83
d84
d85
d86
d87
d88
d89
d90
d91
d92
d93
d94
d95
d96
d97
d98
d99
d100
d101
d102
d103
d104
d105
d106
d107
d108
d109
d110
d111
d112
d113
d114
d115
d116
d117
d118
d119
d120
d121
d122
d123
d124
d125
d126
d127
d128
d129
d130
d131
d132
d133
d134
d135
d136
d137
d138
d139
d140
d141
d142
d143
d144
d145
d146
d147
d148
d149
d150
d151
d152
d153
d154
d155
d156
d157
d158
d159
d160
d161
d162
d163
d164
d165
d166
d167
d168
d169
d170
d171
d172
d173
d174
d175
d176
d177
d178
d179
x0
x1
x2
x3
x4
x5
x6
x7
x8
x9
x10
x11
x12
x13
x14
x15
x16
x17
x18
x19
x20
x21
x22
x23
x24
x25
x26
x27
x28
x29
x30
x31
x32
x33
x34
x35
x36
x37
x38
x39
x40
x41
x42
x43
x44
x45
x46
x47
x48
x49
x50
x51
x52
x53
x54
x55
x56
x57
x58
x59
x60
x61
x62
x63
x64
x65
x66
x67
x68
x69
x70
x71
x72
x73
x74
x75
x76
x77
x78
x79
x80
x81
x82
x83
x84
x85
x86
x87
x88
x89
x90
x91
x92
x93
x94
x95
x96
x97
x98
x99
x100
x101
x102
x103
x104
x105
x106
x107
x108
x109
x110
x111
x112
x113
x114
x115
x116
x117
x118
x119
x120
x121
x122
x123
x124
x125
x126
x127
x128
x129
x130
x131
x132
x133
x134
x135
x136
x137
x138
x139
x140
x141
x142
x143
x144
x145
x146
x147
x148
x149
x150
x151
x152
x153
x154
x155
x156
x157
x158
x159
x160
x161
x162
x163
x164
x165
x166
x167
x168
x169
x170
x171
x172
x173
x174
x175
x176
x177
x178
x179
x180
x181
x182
x183
x184
x185
x186
x187
x188
x189
x190
x191
x192
x193
x194
x195
x196
x197
x198
x199
x200
x201
x202
x203
x204
x205
x206
x207
x208
x209
x210
x211
x212
x213
x214
x215
x216
x217
x218
x219
x220
x221
x222
x223
x224
x225
x226
x227
x228
x229
x230
x231
x232
x233
x234
x235
x236
x237
x238
x239
x240
x241
x242
x243
x244
x245
x246
x247
x248
x249
x250
x251
x252
x253
x254
x255
x256
x257
x258
x259
x260
x261
x262
x263
x264
x265
x266
x267
x268
x269
x270
x271
x272
x273
x274
x275
x276
x277
x278
x279
x280
x281
x282
x283
x284
x285
x286
x287
x288
x289
x290
x291
x292
x293
x294
x295
x296
x297
x298
x299
x300
x301
x302
x303
End